SPARKNaCl/why3-cvc5/sparknacl-utils.adb_412_20_initialization_1.smt2
;; produced by cvc5.drv ;;
(set-logic ALL)
(set-info :smt-lib-version 2.6)
;;; generated by SMT-LIB2 driver
;;; SMT-LIB2 driver: bit-vectors, common part
;;; SMT-LIB2: integer arithmetic
;; "pow2"
(declare-fun pow2 (Int) Int)

(declare-const two_power_size_minus_one Int)

;; "two_power_size_minus_one_val"
(assert (= two_power_size_minus_one (pow2 (- 8 1))))

;; "min"
(define-fun min ((x Int) (y Int)) Int
  (ite (<= x y) x y))

;; "max"
(define-fun max ((x Int) (y Int)) Int
  (ite (<= x y) y x))

;; "Min_r"
(assert (forall ((x Int) (y Int)) (=> (<= y x) (= (min x y) y))))

;; "Max_l"
(assert (forall ((x Int) (y Int)) (=> (<= y x) (= (max x y) x))))

;; "Min_comm"
(assert (forall ((x Int) (y Int)) (= (min x y) (min y x))))

;; "Max_comm"
(assert (forall ((x Int) (y Int)) (= (max x y) (max y x))))

;; "Min_assoc"
(assert
  (forall ((x Int) (y Int) (z Int)) (= (min (min x y) z) (min x (min y z)))))

;; "Max_assoc"
(assert
  (forall ((x Int) (y Int) (z Int)) (= (max (max x y) z) (max x (max y z)))))

(declare-const two_power_size_minus_one1 Int)

;; "two_power_size_minus_one_val"
(assert (= two_power_size_minus_one1 (pow2 (- 16 1))))

(declare-sort byte 0)

;; "to_rep"
(declare-fun to_rep (byte) (_ BitVec 8))

;; "of_rep"
(declare-fun of_rep ((_ BitVec 8)) byte)

;; "inversion_axiom"
(assert
  (forall ((x byte)) (! (= (of_rep (to_rep x)) x) :pattern ((to_rep x)) )))

;; "range_axiom"
(assert true)

;; "coerce_axiom"
(assert
  (forall ((x (_ BitVec 8)))
    (! (= (to_rep (of_rep x)) x) :pattern ((to_rep (of_rep x))) )))

(declare-sort map1 0)

;; "has_bounds"
(declare-fun has_bounds (map1
  Int
  Int) Bool)

;; "get"
(declare-fun get (map1
  Int) byte)

(declare-const n map1)

(declare-sort gf16_normal_limb 0)

(declare-datatypes ((gf16_normal_limb__init_wrapper 0))
  (((gf16_normal_limb__init_wrapperqtmk
    (rec__value gf16_normal_limb)(us_attr__init Bool)))))

(declare-sort map2 0)

;; "has_bounds"
(declare-fun has_bounds1 (map2
  Int
  Int) Bool)

;; "get"
(declare-fun get1 (map2
  Int) gf16_normal_limb__init_wrapper)

;; "set"
(declare-fun set (map2
  Int
  gf16_normal_limb__init_wrapper) map2)

;; "set_eq"
(assert
  (forall ((a map2) (i Int) (v gf16_normal_limb__init_wrapper))
    (! (= (get1 (set a i v) i) v) :pattern ((set a i v)) )))

;; "set_neq"
(assert
  (forall ((a map2) (i Int) (v gf16_normal_limb__init_wrapper))
    (! (forall ((j Int))
         (! (=> (not (= i j)) (= (get1 (set a i v) j) (get1 a j))) :pattern (
         (get1
           a
           j)) :pattern ((get1 (set a i v) j)) )) :pattern ((set a i v)) )))

;; "set_has_bounds"
(assert
  (forall ((a map2) (i Int) (f Int) (l Int) (v gf16_normal_limb__init_wrapper))
    (! (=>
         (and (<= f i) (<= i l))
         (=> (has_bounds1 a f l) (has_bounds1 (set a i v) f l))) :pattern (
    (has_bounds1
      (set a i v)
      f
      l)) )))

;; "to_rep"
(declare-fun to_rep1 (gf16_normal_limb) (_ BitVec 16))

;; "of_rep"
(declare-fun of_rep1 ((_ BitVec 16)) gf16_normal_limb)

;; "inversion_axiom"
(assert
  (forall ((x gf16_normal_limb))
    (! (= (of_rep1 (to_rep1 x)) x) :pattern ((to_rep1 x)) )))

;; "range_axiom"
(assert true)

;; "coerce_axiom"
(assert
  (forall ((x (_ BitVec 16)))
    (! (= (to_rep1 (of_rep1 x)) x) :pattern ((to_rep1 (of_rep1 x))) )))

;; Goal "def'vc"
;; File "sparknacl-utils.ads", line 62, characters 0-0
(assert
  (not
  (forall ((o map2))
    (=>
      (has_bounds n 0 31)
      (=>
        (has_bounds1 o 0 15)
        (forall ((o1 map2))
          (=>
            (exists ((i Int))
              (and
                (= i 0)
                (ite (= (and (ite (<= 0 i) true false) (ite (<= i 15)
                                                         true
                                                         false)) true)
                  (exists ((o2 (_ BitVec 8)))
                    (and
                      (= (to_rep (get n (+ (* 2 i) 1))) o2)
                      (exists ((o3 (_ BitVec 8)))
                        (and
                          (= (to_rep (get n (* 2 i))) o3)
                          (exists ((o4 gf16_normal_limb))
                            (and
                              (= (to_rep1 o4) (bvadd ((_ zero_extend 8) o3) (bvmul ((_ zero_extend 8) o2) #x0100)))
                              (exists ((o5 map2))
                                (and
                                  (= o5 (set
                                          o
                                          i
                                          (gf16_normal_limb__init_wrapperqtmk
                                            o4
                                            true)))
                                  (exists ((i1 Int))
                                    (and
                                      (forall ((j Int))
                                        (=>
                                          (and (<= 0 j) (<= j i1))
                                          (= (us_attr__init (get1 o1 j)) true)))
                                      (and
                                        (= (and (ite (and
                                                       (has_bounds1 o1 0 15)
                                                       (forall ((temp___848 Int))
                                                         (=>
                                                           (and
                                                             (<= 0 temp___848)
                                                             (<= temp___848 15))
                                                           (=>
                                                             (or
                                                               (< 15 temp___848)
                                                               (or
                                                                 (< temp___848 0)
                                                                 (< i1 temp___848)))
                                                             (= (get1
                                                                  o1
                                                                  temp___848) 
                                                             (get1
                                                               o
                                                               temp___848))))))
                                                  true
                                                  false) (ite (and
                                                                (<= 0 i1)
                                                                (<= i1 15))
                                                           true
                                                           false)) true)
                                        (= i1 15))))))))))))
                  (= o1 o))))
            (= (us_attr__init (get1 o1 15)) true))))))))

(check-sat)
